N = 11;
H = 6;
T = 2;

avail = array3d(1..N, 1..H, 1..T, [2, 8, 10, 7, 6, 4, 5, 9, 8, 5, 8, 10, 6, 5, 8, 7, 7, 8, 4, 0, 4, 10, 10, 7, 3, 4, 10, 2, 9, 6, 3, 1, 3, 4, 0, 9, 1, 5, 3, 8, 2, 3, 2, 4, 10, 5, 1, 4, 0, 2, 7, 9, 7, 8, 7, 5, 3, 1, 9, 7, 8, 10, 9, 0, 10, 2, 6, 0, 5, 10, 3, 3, 4, 9, 1, 1, 4, 3, 9, 9, 0, 1, 6, 1, 5, 10, 7, 0, 5, 6, 4, 0, 0, 10, 3, 4, 1, 1, 9, 10, 5, 6, 0, 10, 10, 2, 10, 2, 3, 5, 3, 2, 1, 2, 6, 3, 5, 8, 8, 10, 4, 5, 3, 8, 2, 0, 1, 1, 5, 10, 7, 8]);

r = array2d(1..H, 1..T, [5, 1, 2, 1, 4, 5, 4, 3, 2, 6, 4, 3]);
